(set-info :smt-lib-version 2.6)
(set-logic UFNIA)
(set-info :source |
Generated by: Geoff Sutcliffe
Generated on: 2026-03-11
Generator: TPTPWorld
Application: Benchmarking automated theorem provers
Time limit: 120.0

These benchmarks are translations from the TPTP Library (Thousands of
Problems for Theorem Provers), see http://www.cs.miami.edu/~tptp/

The TPTP is maintained by Geoff Sutcliffe, and he contributed this
selection of benchmarks to SMT-LIB.  They were exported from the
v9.2.1 realease of TPTP.
|)
(set-info :category "industrial")
(set-info :status "unknown")
; SZS status Success
(declare-sort $$unsorted 0)
(declare-sort tptp.uni 0)
(declare-sort tptp.ty 0)
(declare-fun tptp.sort1 (tptp.ty tptp.uni) Bool)
(declare-fun tptp.witness1 (tptp.ty) tptp.uni)
(assert (forall ((A tptp.ty)) (tptp.sort1 A (tptp.witness1 A))))
(declare-fun tptp.int () tptp.ty)
(declare-fun tptp.real () tptp.ty)
(declare-sort tptp.bool1 0)
(declare-fun tptp.bool () tptp.ty)
(declare-fun tptp.true1 () tptp.bool1)
(declare-fun tptp.false1 () tptp.bool1)
(declare-fun tptp.match_bool1 (tptp.ty tptp.bool1 tptp.uni tptp.uni) tptp.uni)
(assert (forall ((A tptp.ty) (X tptp.bool1) (X1 tptp.uni) (X2 tptp.uni)) (tptp.sort1 A (tptp.match_bool1 A X X1 X2))))
(assert (forall ((A tptp.ty) (Z tptp.uni) (Z1 tptp.uni)) (=> (tptp.sort1 A Z) (= (tptp.match_bool1 A tptp.true1 Z Z1) Z))))
(assert (forall ((A tptp.ty) (Z tptp.uni) (Z1 tptp.uni)) (=> (tptp.sort1 A Z1) (= (tptp.match_bool1 A tptp.false1 Z Z1) Z1))))
(assert (not (= tptp.true1 tptp.false1)))
(assert (forall ((U tptp.bool1)) (or (= U tptp.true1) (= U tptp.false1))))
(declare-sort tptp.tuple02 0)
(declare-fun tptp.tuple0 () tptp.ty)
(declare-fun tptp.tuple03 () tptp.tuple02)
(assert (forall ((U tptp.tuple02)) (= U tptp.tuple03)))
(declare-fun tptp.qtmark () tptp.ty)
(assert (forall ((X Int) (Y Int) (Z Int)) (=> (<= X Y) (=> (<= 0 Z) (<= (* X Z) (* Y Z))))))
(declare-sort tptp.char1 0)
(declare-fun tptp.char () tptp.ty)
(declare-fun tptp.dummy_char1 () tptp.char1)
(declare-sort tptp.string2 0)
(declare-fun tptp.string () tptp.ty)
(declare-fun tptp.length3 (tptp.string2) Int)
(assert (forall ((S tptp.string2)) (<= 0 (tptp.length3 S))))
(declare-fun tptp.mixfix_lbrb1 (tptp.string2 Int) tptp.char1)
(declare-fun tptp.empty1 () tptp.string2)
(assert (= (tptp.length3 tptp.empty1) 0))
(declare-fun tptp.infix_eqeq1 (tptp.string2 tptp.string2) Bool)
(assert (forall ((S1 tptp.string2) (S2 tptp.string2)) (= (tptp.infix_eqeq1 S1 S2) (and (= (tptp.length3 S1) (tptp.length3 S2)) (forall ((I Int)) (=> (and (<= 0 I) (< I (tptp.length3 S1))) (= (tptp.mixfix_lbrb1 S1 I) (tptp.mixfix_lbrb1 S2 I))))))))
(assert (forall ((S1 tptp.string2) (S2 tptp.string2)) (=> (tptp.infix_eqeq1 S1 S2) (= S1 S2))))
(declare-fun tptp.app2 (tptp.string2 tptp.string2) tptp.string2)
(assert (forall ((S1 tptp.string2) (S2 tptp.string2)) (= (tptp.length3 (tptp.app2 S1 S2)) (+ (tptp.length3 S1) (tptp.length3 S2)))))
(assert (forall ((S1 tptp.string2) (S2 tptp.string2) (I Int)) (=> (and (<= 0 I) (< I (tptp.length3 S1))) (= (tptp.mixfix_lbrb1 (tptp.app2 S1 S2) I) (tptp.mixfix_lbrb1 S1 I)))))
(assert (forall ((S1 tptp.string2) (S2 tptp.string2) (I Int)) (let ((_let_1 (tptp.length3 S1))) (=> (and (<= _let_1 I) (< I (+ _let_1 (tptp.length3 S2)))) (= (tptp.mixfix_lbrb1 (tptp.app2 S1 S2) I) (tptp.mixfix_lbrb1 S2 (- I _let_1)))))))
(assert (forall ((S1 tptp.string2) (S2 tptp.string2) (S3 tptp.string2)) (tptp.infix_eqeq1 (tptp.app2 S1 (tptp.app2 S2 S3)) (tptp.app2 (tptp.app2 S1 S2) S3))))
(declare-fun tptp.sub1 (tptp.string2 Int Int) tptp.string2)
(assert (forall ((S tptp.string2) (Ofs Int) (Len Int)) (let ((_let_1 (tptp.length3 S))) (=> (<= 0 Len) (=> (and (<= 0 Ofs) (<= Ofs _let_1)) (=> (<= (+ Ofs Len) _let_1) (= (tptp.length3 (tptp.sub1 S Ofs Len)) Len)))))))
(assert (forall ((S tptp.string2) (Ofs Int) (Len Int)) (let ((_let_1 (tptp.length3 S))) (=> (<= 0 Len) (=> (and (<= 0 Ofs) (<= Ofs _let_1)) (=> (<= (+ Ofs Len) _let_1) (forall ((I Int)) (=> (and (<= 0 I) (< I Len)) (= (tptp.mixfix_lbrb1 (tptp.sub1 S Ofs Len) I) (tptp.mixfix_lbrb1 S (+ Ofs I)))))))))))
(declare-sort tptp.rope1 0)
(declare-fun tptp.rope () tptp.ty)
(declare-fun tptp.emp1 () tptp.rope1)
(declare-fun tptp.str1 (tptp.string2 Int Int) tptp.rope1)
(declare-fun tptp.app3 (tptp.rope1 tptp.rope1 Int) tptp.rope1)
(declare-fun tptp.match_rope1 (tptp.ty tptp.rope1 tptp.uni tptp.uni tptp.uni) tptp.uni)
(assert (forall ((A tptp.ty) (X tptp.rope1) (X1 tptp.uni) (X2 tptp.uni) (X3 tptp.uni)) (tptp.sort1 A (tptp.match_rope1 A X X1 X2 X3))))
(assert (forall ((A tptp.ty) (Z tptp.uni) (Z1 tptp.uni) (Z2 tptp.uni)) (=> (tptp.sort1 A Z) (= (tptp.match_rope1 A tptp.emp1 Z Z1 Z2) Z))))
(assert (forall ((A tptp.ty) (Z tptp.uni) (Z1 tptp.uni) (Z2 tptp.uni) (U tptp.string2) (U1 Int) (U2 Int)) (=> (tptp.sort1 A Z1) (= (tptp.match_rope1 A (tptp.str1 U U1 U2) Z Z1 Z2) Z1))))
(assert (forall ((A tptp.ty) (Z tptp.uni) (Z1 tptp.uni) (Z2 tptp.uni) (U tptp.rope1) (U1 tptp.rope1) (U2 Int)) (=> (tptp.sort1 A Z2) (= (tptp.match_rope1 A (tptp.app3 U U1 U2) Z Z1 Z2) Z2))))
(assert (forall ((V tptp.string2) (V1 Int) (V2 Int)) (not (= tptp.emp1 (tptp.str1 V V1 V2)))))
(assert (forall ((V tptp.rope1) (V1 tptp.rope1) (V2 Int)) (not (= tptp.emp1 (tptp.app3 V V1 V2)))))
(assert (forall ((U tptp.string2) (U1 Int) (U2 Int) (V tptp.rope1) (V1 tptp.rope1) (V2 Int)) (not (= (tptp.str1 U U1 U2) (tptp.app3 V V1 V2)))))
(declare-fun tptp.str_proj_11 (tptp.rope1) tptp.string2)
(assert (forall ((U tptp.string2) (U1 Int) (U2 Int)) (= (tptp.str_proj_11 (tptp.str1 U U1 U2)) U)))
(declare-fun tptp.str_proj_21 (tptp.rope1) Int)
(assert (forall ((U tptp.string2) (U1 Int) (U2 Int)) (= (tptp.str_proj_21 (tptp.str1 U U1 U2)) U1)))
(declare-fun tptp.str_proj_31 (tptp.rope1) Int)
(assert (forall ((U tptp.string2) (U1 Int) (U2 Int)) (= (tptp.str_proj_31 (tptp.str1 U U1 U2)) U2)))
(declare-fun tptp.app_proj_11 (tptp.rope1) tptp.rope1)
(assert (forall ((U tptp.rope1) (U1 tptp.rope1) (U2 Int)) (= (tptp.app_proj_11 (tptp.app3 U U1 U2)) U)))
(declare-fun tptp.app_proj_21 (tptp.rope1) tptp.rope1)
(assert (forall ((U tptp.rope1) (U1 tptp.rope1) (U2 Int)) (= (tptp.app_proj_21 (tptp.app3 U U1 U2)) U1)))
(declare-fun tptp.app_proj_31 (tptp.rope1) Int)
(assert (forall ((U tptp.rope1) (U1 tptp.rope1) (U2 Int)) (= (tptp.app_proj_31 (tptp.app3 U U1 U2)) U2)))
(assert (forall ((U tptp.rope1)) (or (= U tptp.emp1) (= U (tptp.str1 (tptp.str_proj_11 U) (tptp.str_proj_21 U) (tptp.str_proj_31 U))) (= U (tptp.app3 (tptp.app_proj_11 U) (tptp.app_proj_21 U) (tptp.app_proj_31 U))))))
(declare-fun tptp.length4 (tptp.rope1) Int)
(assert (and (= (tptp.length4 tptp.emp1) 0) (forall ((X tptp.string2) (X1 Int) (X2 Int)) (= (tptp.length4 (tptp.str1 X X1 X2)) X2)) (forall ((X tptp.rope1) (X1 tptp.rope1) (X2 Int)) (= (tptp.length4 (tptp.app3 X X1 X2)) X2))))
(declare-fun tptp.inv1 (tptp.rope1) Bool)
(assert (and (tptp.inv1 tptp.emp1) (forall ((X tptp.string2) (X1 Int) (X2 Int)) (let ((_let_1 (tptp.length3 X))) (= (tptp.inv1 (tptp.str1 X X1 X2)) (and (< 0 X2) (<= 0 X1) (< X1 _let_1) (<= (+ X1 X2) _let_1))))) (forall ((X tptp.rope1) (X1 tptp.rope1) (X2 Int)) (let ((_let_1 (tptp.length4 X1))) (let ((_let_2 (tptp.length4 X))) (= (tptp.inv1 (tptp.app3 X X1 X2)) (and (< 0 _let_2) (tptp.inv1 X) (< 0 _let_1) (tptp.inv1 X1) (= X2 (+ _let_2 _let_1)))))))))
(declare-fun tptp.string3 (tptp.rope1) tptp.string2)
(assert (and (= (tptp.string3 tptp.emp1) tptp.empty1) (forall ((X tptp.string2) (X1 Int) (X2 Int)) (= (tptp.string3 (tptp.str1 X X1 X2)) (tptp.sub1 X X1 X2))) (forall ((X tptp.rope1) (X1 tptp.rope1) (X2 Int)) (= (tptp.string3 (tptp.app3 X X1 X2)) (tptp.app2 (tptp.string3 X) (tptp.string3 X1))))))
(assert (forall ((R tptp.rope1)) (=> (tptp.inv1 R) (= (tptp.length3 (tptp.string3 R)) (tptp.length4 R)))))
(declare-fun tptp.fib1 (Int) Int)
(assert (= (tptp.fib1 0) 0))
(assert (= (tptp.fib1 1) 1))
(assert (forall ((N Int)) (=> (<= 2 N) (= (tptp.fib1 N) (+ (tptp.fib1 (- N 1)) (tptp.fib1 (- N 2)))))))
(declare-fun tptp.min1 (Int Int) Int)
(declare-fun tptp.max2 (Int Int) Int)
(assert (forall ((X Int) (Y Int)) (let ((_let_1 (tptp.max2 X Y))) (and (<= X _let_1) (<= Y _let_1)))))
(assert (forall ((X Int) (Y Int)) (let ((_let_1 (tptp.max2 X Y))) (or (= _let_1 X) (= _let_1 Y)))))
(assert (forall ((X Int) (Y Int)) (let ((_let_1 (tptp.min1 X Y))) (and (<= _let_1 X) (<= _let_1 Y)))))
(assert (forall ((X Int) (Y Int)) (let ((_let_1 (tptp.min1 X Y))) (or (= _let_1 X) (= _let_1 Y)))))
(assert (forall ((X Int) (Y Int)) (=> (<= Y X) (= (tptp.max2 X Y) X))))
(assert (forall ((X Int) (Y Int)) (=> (<= X Y) (= (tptp.max2 X Y) Y))))
(assert (forall ((X Int) (Y Int)) (=> (<= X Y) (= (tptp.min1 X Y) X))))
(assert (forall ((X Int) (Y Int)) (=> (<= Y X) (= (tptp.min1 X Y) Y))))
(assert (forall ((X Int) (Y Int)) (=> (<= Y X) (= (tptp.max2 X Y) (tptp.max2 Y X)))))
(assert (forall ((X Int) (Y Int)) (=> (<= Y X) (= (tptp.min1 X Y) (tptp.min1 Y X)))))
(declare-fun tptp.map (tptp.ty tptp.ty) tptp.ty)
(declare-fun tptp.get (tptp.ty tptp.ty tptp.uni tptp.uni) tptp.uni)
(assert (forall ((A tptp.ty) (B tptp.ty) (X tptp.uni) (X1 tptp.uni)) (tptp.sort1 B (tptp.get B A X X1))))
(declare-fun tptp.set (tptp.ty tptp.ty tptp.uni tptp.uni tptp.uni) tptp.uni)
(assert (forall ((A tptp.ty) (B tptp.ty) (X tptp.uni) (X1 tptp.uni) (X2 tptp.uni)) (tptp.sort1 (tptp.map A B) (tptp.set B A X X1 X2))))
(assert (forall ((A tptp.ty) (B tptp.ty) (M tptp.uni) (A1 tptp.uni) (A2 tptp.uni) (B1 tptp.uni)) (=> (tptp.sort1 B B1) (=> (= A1 A2) (= (tptp.get B A (tptp.set B A M A1 B1) A2) B1)))))
(assert (forall ((A tptp.ty) (B tptp.ty) (M tptp.uni) (A1 tptp.uni) (A2 tptp.uni)) (=> (tptp.sort1 A A1) (=> (tptp.sort1 A A2) (forall ((B1 tptp.uni)) (=> (not (= A1 A2)) (= (tptp.get B A (tptp.set B A M A1 B1) A2) (tptp.get B A M A2))))))))
(declare-fun tptp.const (tptp.ty tptp.ty tptp.uni) tptp.uni)
(assert (forall ((A tptp.ty) (B tptp.ty) (X tptp.uni)) (tptp.sort1 (tptp.map A B) (tptp.const B A X))))
(assert (forall ((A tptp.ty) (B tptp.ty) (B1 tptp.uni) (A1 tptp.uni)) (=> (tptp.sort1 B B1) (= (tptp.get B A (tptp.const B A B1) A1) B1))))
(declare-fun tptp.array (tptp.ty) tptp.ty)
(declare-fun tptp.mk_array1 (tptp.ty Int tptp.uni) tptp.uni)
(assert (forall ((A tptp.ty) (X Int) (X1 tptp.uni)) (tptp.sort1 (tptp.array A) (tptp.mk_array1 A X X1))))
(declare-fun tptp.length5 (tptp.ty tptp.uni) Int)
(assert (forall ((A tptp.ty) (U Int) (U1 tptp.uni)) (= (tptp.length5 A (tptp.mk_array1 A U U1)) U)))
(declare-fun tptp.elts (tptp.ty tptp.uni) tptp.uni)
(assert (forall ((A tptp.ty) (X tptp.uni)) (tptp.sort1 (tptp.map tptp.int A) (tptp.elts A X))))
(assert (forall ((A tptp.ty) (U Int) (U1 tptp.uni)) (=> (tptp.sort1 (tptp.map tptp.int A) U1) (= (tptp.elts A (tptp.mk_array1 A U U1)) U1))))
(assert (forall ((A tptp.ty) (U tptp.uni)) (= U (tptp.mk_array1 A (tptp.length5 A U) (tptp.elts A U)))))
(declare-fun tptp.get2 (tptp.ty tptp.uni Int) tptp.uni)
(assert (forall ((A tptp.ty) (X tptp.uni) (X1 Int)) (tptp.sort1 A (tptp.get2 A X X1))))
(declare-fun tptp.t2tb (Int) tptp.uni)
(assert (forall ((X Int)) (tptp.sort1 tptp.int (tptp.t2tb X))))
(declare-fun tptp.tb2t (tptp.uni) Int)
(assert (forall ((I Int)) (= (tptp.tb2t (tptp.t2tb I)) I)))
(assert (forall ((J tptp.uni)) (= (tptp.t2tb (tptp.tb2t J)) J)))
(assert (forall ((A tptp.ty) (A1 tptp.uni) (I Int)) (= (tptp.get2 A A1 I) (tptp.get A tptp.int (tptp.elts A A1) (tptp.t2tb I)))))
(declare-fun tptp.set2 (tptp.ty tptp.uni Int tptp.uni) tptp.uni)
(assert (forall ((A tptp.ty) (X tptp.uni) (X1 Int) (X2 tptp.uni)) (tptp.sort1 (tptp.array A) (tptp.set2 A X X1 X2))))
(assert (forall ((A tptp.ty) (A1 tptp.uni) (I Int) (V tptp.uni)) (= (tptp.set2 A A1 I V) (tptp.mk_array1 A (tptp.length5 A A1) (tptp.set A tptp.int (tptp.elts A A1) (tptp.t2tb I) V)))))
(declare-fun tptp.make1 (tptp.ty Int tptp.uni) tptp.uni)
(assert (forall ((A tptp.ty) (X Int) (X1 tptp.uni)) (tptp.sort1 (tptp.array A) (tptp.make1 A X X1))))
(assert (forall ((A tptp.ty) (N Int) (V tptp.uni)) (= (tptp.make1 A N V) (tptp.mk_array1 A N (tptp.const A tptp.int V)))))
(declare-fun tptp.ref (tptp.ty) tptp.ty)
(declare-fun tptp.mk_ref (tptp.ty tptp.uni) tptp.uni)
(assert (forall ((A tptp.ty) (X tptp.uni)) (tptp.sort1 (tptp.ref A) (tptp.mk_ref A X))))
(declare-fun tptp.contents (tptp.ty tptp.uni) tptp.uni)
(assert (forall ((A tptp.ty) (X tptp.uni)) (tptp.sort1 A (tptp.contents A X))))
(assert (forall ((A tptp.ty) (U tptp.uni)) (=> (tptp.sort1 A U) (= (tptp.contents A (tptp.mk_ref A U)) U))))
(assert (forall ((A tptp.ty) (U tptp.uni)) (=> (tptp.sort1 (tptp.ref A) U) (= U (tptp.mk_ref A (tptp.contents A U))))))
(declare-fun tptp.max3 () Int)
(assert (<= 2 tptp.max3))
(declare-sort tptp.array_rope 0)
(declare-fun tptp.string_of_array1 (tptp.array_rope Int Int) tptp.string2)
(declare-fun tptp.t2tb1 (tptp.array_rope) tptp.uni)
(assert (forall ((X tptp.array_rope)) (tptp.sort1 (tptp.array tptp.rope) (tptp.t2tb1 X))))
(declare-fun tptp.tb2t1 (tptp.uni) tptp.array_rope)
(assert (forall ((I tptp.array_rope)) (= (tptp.tb2t1 (tptp.t2tb1 I)) I)))
(assert (forall ((J tptp.uni)) (= (tptp.t2tb1 (tptp.tb2t1 J)) J)))
(assert (forall ((Q tptp.array_rope) (L Int)) (=> (and (<= 0 L) (<= L (tptp.length5 tptp.rope (tptp.t2tb1 Q)))) (tptp.infix_eqeq1 (tptp.string_of_array1 Q L L) tptp.empty1))))
(declare-fun tptp.t2tb2 (tptp.rope1) tptp.uni)
(assert (forall ((X tptp.rope1)) (tptp.sort1 tptp.rope (tptp.t2tb2 X))))
(declare-fun tptp.tb2t2 (tptp.uni) tptp.rope1)
(assert (forall ((I tptp.rope1)) (= (tptp.tb2t2 (tptp.t2tb2 I)) I)))
(assert (forall ((J tptp.uni)) (= (tptp.t2tb2 (tptp.tb2t2 J)) J)))
(assert (forall ((Q tptp.array_rope) (L Int) (U Int)) (let ((_let_1 (tptp.t2tb1 Q))) (=> (and (<= 0 L) (< L U) (<= U (tptp.length5 tptp.rope _let_1))) (tptp.infix_eqeq1 (tptp.string_of_array1 Q L U) (tptp.app2 (tptp.string_of_array1 Q (+ L 1) U) (tptp.string3 (tptp.tb2t2 (tptp.get2 tptp.rope _let_1 L)))))))))
(assert (forall ((Q tptp.array_rope) (L Int) (Mid Int) (U Int)) (let ((_let_1 (tptp.length5 tptp.rope (tptp.t2tb1 Q)))) (=> (and (<= 0 _let_1) (<= 0 L) (<= L Mid) (<= Mid U) (<= U _let_1)) (tptp.infix_eqeq1 (tptp.string_of_array1 Q L U) (tptp.app2 (tptp.string_of_array1 Q Mid U) (tptp.string_of_array1 Q L Mid)))))))
(assert (forall ((Q tptp.array_rope) (L Int) (U Int)) (let ((_let_1 (- U 1))) (let ((_let_2 (tptp.t2tb1 Q))) (let ((_let_3 (tptp.length5 tptp.rope _let_2))) (=> (and (<= 0 _let_3) (<= 0 L) (< L U) (<= U _let_3)) (tptp.infix_eqeq1 (tptp.string_of_array1 Q L U) (tptp.app2 (tptp.string3 (tptp.tb2t2 (tptp.get2 tptp.rope _let_2 _let_1))) (tptp.string_of_array1 Q L _let_1)))))))))
(assert (forall ((Q tptp.array_rope) (L Int) (U Int) (I Int)) (let ((_let_1 (tptp.t2tb1 Q))) (let ((_let_2 (tptp.length5 tptp.rope _let_1))) (=> (and (<= 0 _let_2) (<= 0 L) (<= L I) (< I U) (<= U _let_2) (forall ((J Int)) (=> (and (<= L J) (< J U)) (tptp.inv1 (tptp.tb2t2 (tptp.get2 tptp.rope (tptp.t2tb1 Q) J)))))) (<= (tptp.length3 (tptp.string3 (tptp.tb2t2 (tptp.get2 tptp.rope _let_1 I)))) (tptp.length3 (tptp.string_of_array1 Q L U))))))))
(assert (forall ((Q1 tptp.array_rope) (Q2 tptp.array_rope) (L Int) (U Int)) (let ((_let_1 (tptp.length5 tptp.rope (tptp.t2tb1 Q2)))) (let ((_let_2 (tptp.length5 tptp.rope (tptp.t2tb1 Q1)))) (=> (and (<= 0 _let_2) (<= 0 _let_1) (<= 0 L) (<= L U) (<= U _let_2) (= _let_2 _let_1) (forall ((J Int)) (=> (and (<= L J) (< J U)) (= (tptp.tb2t2 (tptp.get2 tptp.rope (tptp.t2tb1 Q1) J)) (tptp.tb2t2 (tptp.get2 tptp.rope (tptp.t2tb1 Q2) J)))))) (tptp.infix_eqeq1 (tptp.string_of_array1 Q1 L U) (tptp.string_of_array1 Q2 L U)))))))
(assert (forall ((Q tptp.array_rope) (L Int) (U Int)) (=> (and (<= 0 L) (<= L U) (<= U (tptp.length5 tptp.rope (tptp.t2tb1 Q)))) (forall ((I Int) (R tptp.rope1)) (let ((_let_1 (tptp.t2tb1 Q))) (=> (or (and (<= 0 I) (< I L)) (and (<= U I) (< I (tptp.length5 tptp.rope _let_1)))) (tptp.infix_eqeq1 (tptp.string_of_array1 Q L U) (tptp.string_of_array1 (tptp.tb2t1 (tptp.set2 tptp.rope _let_1 I (tptp.t2tb2 R))) L U))))))))
(assert (forall ((Q tptp.array_rope) (L Int) (U Int)) (let ((_let_1 (tptp.length5 tptp.rope (tptp.t2tb1 Q)))) (=> (and (<= 0 _let_1) (<= 0 L) (<= L U) (<= U _let_1) (forall ((J Int)) (=> (and (<= L J) (< J U)) (= (tptp.tb2t2 (tptp.get2 tptp.rope (tptp.t2tb1 Q) J)) tptp.emp1)))) (tptp.infix_eqeq1 (tptp.string_of_array1 Q L U) tptp.empty1)))))
(declare-fun tptp.string_of_queue1 (tptp.array_rope) tptp.string2)
(assert (forall ((Q tptp.array_rope)) (= (tptp.string_of_queue1 Q) (tptp.string_of_array1 Q 2 (tptp.length5 tptp.rope (tptp.t2tb1 Q))))))
(declare-sort tptp.map_int_rope 0)
(declare-fun tptp.t2tb3 (tptp.map_int_rope) tptp.uni)
(assert (forall ((X tptp.map_int_rope)) (tptp.sort1 (tptp.map tptp.int tptp.rope) (tptp.t2tb3 X))))
(declare-fun tptp.tb2t3 (tptp.uni) tptp.map_int_rope)
(assert (forall ((I tptp.map_int_rope)) (= (tptp.tb2t3 (tptp.t2tb3 I)) I)))
(assert (forall ((J tptp.uni)) (= (tptp.t2tb3 (tptp.tb2t3 J)) J)))
(assert (not (forall ((Q Int) (Q1 tptp.map_int_rope) (R tptp.rope1)) (let ((_let_1 (+ tptp.max3 1))) (=> (and (<= 0 Q) (< 2 Q) (= Q _let_1) (tptp.inv1 R) (forall ((J Int)) (=> (and (<= 2 J) (<= J tptp.max3)) (tptp.inv1 (tptp.tb2t2 (tptp.get tptp.rope tptp.int (tptp.t2tb3 Q1) (tptp.t2tb J)))))) (< (+ (tptp.length3 (tptp.string_of_queue1 (tptp.tb2t1 (tptp.mk_array1 tptp.rope Q (tptp.t2tb3 Q1))))) (tptp.tb2t (tptp.match_rope1 tptp.int R (tptp.t2tb 0) (tptp.t2tb (tptp.str_proj_31 R)) (tptp.t2tb (tptp.app_proj_31 R))))) (tptp.fib1 _let_1))) (forall ((X tptp.rope1) (X1 tptp.rope1) (X2 Int)) (let ((_let_1 (+ tptp.max3 1))) (=> (= R (tptp.app3 X X1 X2)) (=> (and (< 2 Q) (= Q _let_1) (tptp.inv1 X) (forall ((J Int)) (=> (and (<= 2 J) (<= J tptp.max3)) (tptp.inv1 (tptp.tb2t2 (tptp.get tptp.rope tptp.int (tptp.t2tb3 Q1) (tptp.t2tb J)))))) (< (+ (tptp.length3 (tptp.string_of_queue1 (tptp.tb2t1 (tptp.mk_array1 tptp.rope Q (tptp.t2tb3 Q1))))) (tptp.tb2t (tptp.match_rope1 tptp.int X (tptp.t2tb 0) (tptp.t2tb (tptp.str_proj_31 X)) (tptp.t2tb (tptp.app_proj_31 X))))) (tptp.fib1 _let_1))) (forall ((Q2 tptp.map_int_rope)) (let ((_let_1 (tptp.string_of_queue1 (tptp.tb2t1 (tptp.mk_array1 tptp.rope Q (tptp.t2tb3 Q2)))))) (=> (and (<= 0 Q) (forall ((J Int)) (=> (and (<= 2 J) (<= J tptp.max3)) (tptp.inv1 (tptp.tb2t2 (tptp.get tptp.rope tptp.int (tptp.t2tb3 Q2) (tptp.t2tb J)))))) (tptp.infix_eqeq1 _let_1 (tptp.app2 (tptp.string_of_queue1 (tptp.tb2t1 (tptp.mk_array1 tptp.rope Q (tptp.t2tb3 Q1)))) (tptp.string3 X)))) (< (+ (tptp.length3 _let_1) (tptp.tb2t (tptp.match_rope1 tptp.int X1 (tptp.t2tb 0) (tptp.t2tb (tptp.str_proj_31 X1)) (tptp.t2tb (tptp.app_proj_31 X1))))) (tptp.fib1 (+ tptp.max3 1)))))))))))))))
(check-sat)
(exit)
